Traveling Salesman Problem/TSP_generados/Aleatorio1621103406_13.tsp
NAME: Aleatorio1621103406_13.tsp
COMMENT: Randomly generated scenario
TYPE: TSP
DIMENSION: 13
EDGE_WEIGHT_TYPE: ATT
NODE_COORD_SECTION
1 47.38 36.69
2 12.49 46.31
3 41.6 12.19
4 29.6 35.73
5 42.89 18.85
6 11.1 6.17
7 9.67 13.42
8 30.97 21.44
9 35.81 3.65
10 44.79 47.88
11 8.31 27.96
12 47.91 6.4
13 17.96 16.7
