Traveling Salesman Problem/TSP_generados/Aleatorio1621103406_13.opt.tour
NAME: Aleatorio1621103406_13.opt.tour
COMMENT: Optimal solution for Aleatorio1621103406_13 (182.87059557312918)
TYPE: TOUR
DIMENSION: 13
TOUR_SECTION
1 5 3 12 9 8 13 6 7 11 2 4 10
-1
EOF
